(declare-const a Real)
(declare-const b Real)
(declare-const c Real)
(assert (= (+ a b c) 3))
(assert (> a 0))
(assert (> b 0))
(assert (> c 0))
(assert (not (<= (+ (* (pow (+ (* (pow a 5) (pow c 2)) (* (/ 1 2) a b (pow c 5) (+ (pow a 2) (pow b 2)))) -1) (pow (+ (* b (pow a 5) (pow c 2)) (* (/ 1 2) a b (pow c 5) (+ (pow a 2) (pow b 2)))) 2)) (* -1 a (pow b 8)) (* -1 b (pow c 8)) (* -1 c (pow a 8)) (* (/ 1 2) a c (pow b 5) (+ (pow a 2) (pow c 2)))) 0)))
(check-sat)
(get-model)
(exit)